n = 21;
k = 4;
roles = [
{f, m},
{m, g},
{m, d},
{g, f},
{g, d},
{m, d},
{f, m},
{f, g},
{m, d},
{g, d},
{m, d},
{g, d},
{m, f},
{m, d},
{d, m},
{d, f},
{g, f},
{m, f},
{m, f},
{f, d},
{d, m}
];
num_pairs = 2;
player1 = [9, 10];
player2 = [20, 5];
